6297
1223
1984
6117
735
9599
7766
5393
9551
2221
5321
6552
3725
6804
5140
4881
3500
5928
6191
1465
2568
10182
9922
5334
7886
3394
8305
5797
929
2613
1208
5849
3973
9676
2578
7090
3592
9924
7196
3878
2979
10018
6981
5687
10148
9351
5630
3611
9599
2695
